
--- Job MLCLSP_omapps.gms Start 02/04/13 15:52:23 WEX-WEI 23.7.3 x86_64/MS Windows     
GAMS Rev 237  Copyright (C) 1987-2011 GAMS Development. All rights reserved
Licensee: Lehrstuhl fuer Produktionswirtschaft           S110209:0510AN-GEN
          Leibniz University Hannover                                DC8871
          License for teaching and research at degree granting institutions
--- Starting compilation
--- MLCLSP_omapps.gms(75) 2 Mb
--- .MLCLSP_Input.inc(182) 3 Mb
--- MLCLSP_omapps.gms(133) 3 Mb
--- Starting execution: elapsed 0:00:00.004
--- MLCLSP_omapps.gms(266) 4 Mb
--- Generating MIP model mlclsp
--- MLCLSP_omapps.gms(270) 4 Mb
---   49 rows  69 columns  207 non-zeroes
---   20 discrete-columns
--- Executing CPLEX: elapsed 0:00:00.011

IBM ILOG CPLEX   Jul 14, 2011 23.7.3 WEX 27723.27726 WEI x86_64/MS Windows
Cplex 12.3.0.0

Reading data...
Starting Cplex...
Tried aggregator 2 times.
MIP Presolve eliminated 4 rows and 5 columns.
MIP Presolve modified 8 coefficients.
Aggregator did 3 substitutions.
Reduced MIP has 42 rows, 61 columns, and 143 nonzeros.
Reduced MIP has 19 binaries, 0 generals, 0 SOSs, and 0 indicators.
Probing time =    0.00 sec.
Tried aggregator 1 time.
Presolve time =    0.00 sec.
Probing time =    0.00 sec.
Clique table members: 3.
MIP emphasis: balance optimality and feasibility.
MIP search method: dynamic search.
Parallel mode: none, using 1 thread.
Tried aggregator 1 time.
LP Presolve eliminated 1 rows and 1 columns.
Aggregator did 17 substitutions.
Reduced LP has 24 rows, 43 columns, and 90 nonzeros.
Presolve time =    0.00 sec.
Initializing dual steep norms . . .

Iteration log . . .
Iteration:     1   Dual objective     =          7162.222222
Initializing dual steep norms . . .
Root relaxation solution time =    0.00 sec.

        Nodes                                         Cuts/
   Node  Left     Objective  IInf  Best Integer    Best Bound    ItCnt     Gap

      0     0    11250.5263     8                  11250.5263       13         
*     0+    0                        16540.0000    11250.5263       13   31.98%
      0     0    14167.4370     5    16540.0000      Cuts: 39       28   14.34%
      0     0    14463.6021     9    16540.0000       Cuts: 6       44   12.55%
      0     0    14470.7551    10    16540.0000      Cuts: 13       50   12.51%
      0     0    14486.7412    11    16540.0000       Cuts: 2       53   12.41%
      0     0    14488.9483    12    16540.0000   Flowcuts: 2       55   12.40%
      0     0    14489.3479    11    16540.0000   Impl Bds: 1       56   12.40%
      0     2    14489.3479    11    16540.0000    14493.0267       56   12.38%
Elapsed real time =   0.02 sec. (tree size =  0.00 MB, solutions = 1)
*    10+    8                        16010.0000    14703.7500      110    8.16%
*    27     5      integral     0    15640.0000    15124.1639      150    3.30%
                                                      Cuts: 3                  

Cover cuts applied:  2
Implied bound cuts applied:  9
Flow cuts applied:  12
Gomory fractional cuts applied:  7

Root node processing (before b&c):
  Real time             =    0.02
Sequential b&c:
  Real time             =    0.02
                          -------
Total (root+branch&cut) =    0.03 sec.
MIP status(101): integer optimal solution
Fixing integer variables, and solving final LP...
Tried aggregator 1 time.
LP Presolve eliminated 29 rows and 40 columns.
Aggregator did 7 substitutions.
Reduced LP has 13 rows, 22 columns, and 42 nonzeros.
Presolve time =    0.00 sec.
Initializing dual steep norms . . .

Iteration log . . .
Iteration:     1   Dual objective     =         13890.000000
Fixed MIP status(1): optimal

Proven optimal solution.

MIP Solution:        15640.000000    (175 iterations, 35 nodes)
Final Solve:         15640.000000    (5 iterations)

Best possible:       15640.000000
Absolute gap:            0.000000
Relative gap:            0.000000

--- Restarting execution
--- MLCLSP_omapps.gms(270) 2 Mb
--- Reading solution for model mlclsp
--- Executing after solve: elapsed 0:00:00.114
--- MLCLSP_omapps.gms(312) 3 Mb
--- Putfile outputfile1 C:\Sites\omapps\MLCLSP_solution_kt.txt
--- Putfile outputfile2 C:\Sites\omapps\MLCLSP_solution_jt.txt
--- Putfile outputfile3 C:\Sites\omapps\MLCLSP_ofv.txt
*** Status: Normal completion
--- Job MLCLSP_omapps.gms Stop 02/04/13 15:52:23 elapsed 0:00:00.117
